p cnf 102 274
1 0
46 5 0
-46 -5 0
51 13 50 0
-51 -13 50 0
51 -13 -50 0
-51 13 -50 0
24 40 0
-24 -40 0
21 34 14 0
-21 -34 14 0
21 -34 -14 0
-21 34 -14 0
-44 36 22 0
-36 44 0
-22 44 0
-28 -31 0
-28 -21 0
31 21 28 0
8 12 37 0
-8 -12 37 0
8 -12 -37 0
-8 12 -37 0
4 3 48 0
-4 -3 48 0
4 -3 -48 0
-4 3 -48 0
30 20 27 0
-30 -20 27 0
30 -20 -27 0
-30 20 -27 0
27 6 34 0
-27 -6 34 0
27 -6 -34 0
-27 6 -34 0
7 9 41 0
-7 -9 41 0
7 -9 -41 0
-7 9 -41 0
-26 -8 -12 0
8 26 0
12 26 0
18 5 35 0
-18 -5 35 0
18 -5 -35 0
-18 5 -35 0
-38 -33 0
-38 -30 0
33 30 38 0
41 11 16 0
-41 -11 16 0
41 -11 -16 0
-41 11 -16 0
-42 -26 30 0
-30 42 0
-30 26 0
22 9 0
-22 -9 0
-32 -11 40 0
-40 32 0
-40 11 0
-33 -10 0
-33 -2 0
10 2 33 0
44 37 18 0
-44 -37 18 0
44 -37 -18 0
-44 37 -18 0
-23 -8 0
-23 -12 0
8 12 23 0
10 2 20 0
-10 -2 20 0
10 -2 -20 0
-10 2 -20 0
-25 46 24 0
-46 25 0
-24 25 0
-19 -25 21 0
-21 19 0
-21 25 0
-27 -39 31 0
-31 27 0
-31 39 0
32 41 0
-32 -41 0
-29 47 28 0
-47 29 0
-28 29 0
-19 18 45 0
-18 19 0
-45 19 0
-42 23 44 0
-23 42 0
-44 42 0
48 29 49 0
-48 -29 49 0
48 -29 -49 0
-48 29 -49 0
50 49 15 0
-50 -49 15 0
50 -49 -15 0
-50 49 -15 0
-2 -10 43 0
-43 2 0
-43 10 0
-45 -5 0
-45 -40 0
5 40 45 0
24 35 17 0
-24 -35 17 0
24 -35 -17 0
-24 35 -17 0
36 7 0
-36 -7 0
39 6 0
-39 -6 0
-47 -39 0
-47 -27 0
39 27 47 0
-51 43 38 0
-43 51 0
-38 51 0
-96 -63 0
-96 -62 0
63 62 96 0
84 87 67 0
-84 -87 67 0
84 -87 -67 0
-84 87 -67 0
-98 99 97 0
-99 98 0
-97 98 0
-82 -74 79 0
-79 82 0
-79 74 0
-69 -81 95 0
-95 69 0
-95 81 0
-82 78 80 0
-78 82 0
-80 82 0
-70 -92 0
-70 -95 0
92 95 70 0
54 60 73 0
-54 -60 73 0
54 -60 -73 0
-54 60 -73 0
78 61 0
-78 -61 0
-58 -100 91 0
-91 58 0
-91 100 0
-92 -56 0
-92 -59 0
56 59 92 0
99 52 0
-99 -52 0
80 71 66 0
-80 -71 66 0
80 -71 -66 0
-80 71 -66 0
73 101 87 0
-73 -101 87 0
73 -101 -87 0
-73 101 -87 0
-86 -61 0
-86 -91 0
61 91 86 0
-94 -79 68 0
-68 94 0
-68 79 0
94 57 0
-94 -57 0
83 58 65 0
-83 -58 65 0
83 -58 -65 0
-83 58 -65 0
95 77 75 0
-95 -77 75 0
95 -77 -75 0
-95 77 -75 0
-76 -75 0
-76 -68 0
75 68 76 0
100 83 0
-100 -83 0
80 91 0
-80 -91 0
97 53 0
-97 -53 0
98 72 88 0
-98 -72 88 0
98 -72 -88 0
-98 72 -88 0
-74 86 88 0
-86 74 0
-88 74 0
-69 -63 -62 0
63 69 0
62 69 0
52 53 83 0
-52 -53 83 0
52 -53 -83 0
-52 53 -83 0
-89 85 70 0
-85 89 0
-70 89 0
-90 -94 0
-90 -79 0
94 79 90 0
-81 98 96 0
-98 81 0
-96 81 0
56 59 77 0
-56 -59 77 0
56 -59 -77 0
-56 59 -77 0
89 55 84 0
-89 -55 84 0
89 -55 -84 0
-89 55 -84 0
75 57 93 0
-75 -57 93 0
75 -57 -93 0
-75 57 -93 0
79 93 64 0
-79 -93 64 0
79 -93 -64 0
-79 93 -64 0
63 62 72 0
-63 -62 72 0
63 -62 -72 0
-63 62 -72 0
88 61 71 0
-88 -61 71 0
88 -61 -71 0
-88 61 -71 0
-101 90 76 0
-90 101 0
-76 101 0
-56 -59 85 0
-85 56 0
-85 59 0
-2 56 0
-56 2 0
-3 54 0
-54 3 0
-9 52 0
-52 9 0
-12 63 0
-63 12 0
-4 60 0
-60 4 0
-7 53 0
-53 7 0
-8 62 0
-62 8 0
-10 59 0
-59 10 0
-5 61 0
-61 5 0
-6 57 0
-57 6 0
-11 58 0
-58 11 0
-13 55 0
-55 13 0
15 67 -102 0
-15 -67 -102 0
15 -67 102 0
-15 67 102 0
102 0
